c b=2,c=785
p cnf 14 24
2 -4 0
2 -8 0
1 2 -12 0
2 -13 0
-2 4 0
-2 8 0
1 -2 12 0
1 -2 13 0
1 -3 0
1 -7 0
1 -11 0
1 -14 0
-1 2 12 0
2 -14 0
-1 -2 -12 0
-1 -2 14 0
-1 3 0
-1 7 0
-1 11 0
-1 -13 0
-5 0
-6 0
-9 0
-10 0
